letting initialStacks = [28, 42, 51, 32, 38, 8, 15, 18, 9, 33, 21, 39, 7, 12, 24, 14, 29, 47, 44, 48, 34, 46, 31, 35, 19, 11, 6, 26, 3, 50, 5, 43, 30, 16, 36, 49, 45, 10, 17, 41, 20, 1, 2, 22, 4, 25, 40, 27, 23, 13, 37]
